(declare-fun bvlambda_54_ () (_ BitVec 1))
(declare-fun a168 () (Array (_ BitVec 1) (_ BitVec 2)))
(assert
(let (($e211 (select a168 (not false))))
(let (($e217 (store a168 false       $e211       )))
(let (($e218 (select $e217 bvlambda_54_)))
(let (($e231      (=     $e218 $e211)         ))
(let (($e489 (store a168 true         $e211)))
(let (($e493 (select $e489 $e231)))
             (   extract      $e493)
                                                                                                                                                                                                                                                                                                                                                                                                                                                                                                                                                                                                                                                                                                                                                                                                                                                                                                                                                                                                                                                                                                                                                                                                                                                                                                                                                                                                                                                                                                                                                                                                                                                                                                           )   )                                                                                                                                                                                                                                                                 )            ))     )                                                                                                                                             )
